WARNING: for repeatability, setting FPU to use double precision
============================[ Problem Statistics ]=============================
|                                                                             |
|  Number of variables:         44095                                         |
|  Number of clauses:          542252                                         |
|  Parse time:                   0.12 s                                       |
|                                                                             |
============================[ Search Statistics ]==============================
| Conflicts |          ORIGINAL         |          LEARNT          | Progress |
|           |    Vars  Clauses Literals |    Limit  Clauses Lit/Cl |          |
===============================================================================
|       100 |   44090   542227  1554205 |   198816      100     32 |  0.012 % |
|       250 |   44090   542227  1554205 |   218698      250     33 |  0.011 % |
|       475 |   44090   542227  1554205 |   240568      475     36 |  0.011 % |
|       812 |   44090   542227  1554205 |   264624      812     37 |  0.011 % |
|      1318 |   44090   542227  1554205 |   291087     1318     39 |  0.011 % |
|      2077 |   44090   542227  1554205 |   320196     2077     41 |  0.011 % |
|      3216 |   44090   542227  1554205 |   352215     3216     39 |  0.011 % |
|      4924 |   44090   542227  1554205 |   387437     4924     43 |  0.011 % |
|      7486 |   44090   542227  1554205 |   426180     7486     50 |  0.011 % |
|     11330 |   44090   542227  1554205 |   468799    11330     53 |  0.011 % |
|     17096 |   44090   542227  1554205 |   515678    17096     52 |  0.011 % |
|     25745 |   44090   542227  1554205 |   567246    25745     51 |  0.011 % |
|     38719 |   44090   542227  1554205 |   623971    38719     55 |  0.011 % |
|     58180 |   44090   542227  1554205 |   686368    58180     61 |  0.011 % |
|     87372 |   44090   542227  1554205 |   755005    87372     60 |  0.011 % |
|    131161 |   44090   542227  1554205 |   830506   131161     59 |  0.011 % |
|    196845 |   44090   542227  1554205 |   913556   196845     65 |  0.011 % |
|    295371 |   44090   542227  1554205 |  1004912   295371     72 |  0.011 % |
|    443160 |   44090   542227  1554205 |  1105403   443160     68 |  0.011 % |
|    664843 |   44090   542227  1554205 |  1215944   664843     66 |  0.011 % |
|    997368 |   44090   542227  1554205 |  1337538   997368     63 |  0.011 % |
|   1496156 |   44090   542227  1554205 |  1471292   170381     66 |  0.011 % |
===============================================================================
restarts              : 4094
conflicts             : 2224749        (7446 /sec)
decisions             : 20253791       (0.00 % random) (67786 /sec)
propagations          : 961608998      (3218344 /sec)
conflict literals     : 138049250      (56.65 % deleted)
Memory used           : 693.00 MB
CPU time              : 298.79 s

INDETERMINATE
